data;
param n:=50;
param w:=1 57 2 113 3 77 4 158 5 -191 6 154 7 -147 8 177 9 50 10 84 11 -33 12 -222 13 -33 14 -122 15 192 16 124 17 -79 18 226 19 117 20 -65 21 -246 22 234 23 -188 24 -39 25 -33 26 -17 27 -236 28 225 29 -28 30 10 31 -111 32 36 33 132 34 141 35 -216 36 34 37 146 38 9 39 -114 40 -26 41 -124 42 -59 43 -141 44 52 45 123 46 -4 47 -25 48 -247 49 -172 50 247;
